proyfinal/src/viki/013/experimentInOfficeAgust.take6.output/77e702b8-4293-4f73-b5c9-c186c47d9817.als.out
Reading from standard input... Use '--help' for help.
============================[ Problem Statistics ]=============================
|                                                                             |
|  Number of variables:         87638                                         |
|  Number of clauses:          161767                                         |
|  Parse time:                   0.03 s                                       |
|                                                                             |
============================[ Search Statistics ]==============================
| Conflicts |          ORIGINAL         |          LEARNT          | Progress |
|           |    Vars  Clauses Literals |    Limit  Clauses Lit/Cl |          |
===============================================================================
|       100 |   66550   120537   300262 |    44196      100     19 | 24.063 % |
|       250 |   66550   120537   300262 |    48616      250     78 | 24.063 % |
|       475 |   61679   104417   260360 |    53478      472     52 | 29.621 % |
|       812 |   61660   104335   260167 |    58826      808     63 | 29.642 % |
|      1318 |   61660   104335   260167 |    64708     1314     94 | 29.642 % |
|      2077 |   61645   104269   260013 |    71179     2072     80 | 29.660 % |
|      3216 |   61545   103875   259085 |    78297     3206     94 | 29.774 % |
|      4924 |   61318   103001   257044 |    86127     4901     90 | 30.033 % |
|      7486 |   61220   102630   256175 |    94739     7460     98 | 30.144 % |
|     11330 |   61220   102630   256175 |   104213    11304    108 | 30.144 % |
|     17096 |   61167   102347   255484 |   114635    17046    132 | 30.205 % |
===============================================================================
restarts              : 63
conflicts             : 18527          (7207 /sec)
decisions             : 108734         (0.00 % random) (42299 /sec)
propagations          : 26537910       (10323621 /sec)
conflict literals     : 2548897        (22.84 % deleted)
Memory used           : 51.49 MB
CPU time              : 2.5706 s

INDETERMINATE
